32      4       
8       13      11      10      
0       0       0       0       0       3       2       3       4       
2       0       10      0       0       3       5       7       13      
3       0       3       0       0       3       6       18      24      
6       0       0       9       0       1       19      
8       8       0       0       0       3       8       9       10      
3       0       6       0       0       3       11      13      22      
2       0       8       0       0       1       14      
2       0       9       0       0       1       29      
1       0       5       0       0       2       15      25      
8       0       10      0       0       1       12      
4       0       5       0       0       1       14      
3       0       0       0       5       1       16      
2       0       1       0       0       2       23      26      
7       4       0       0       0       1       30      
6       0       0       5       0       1       19      
8       0       0       8       0       3       17      21      22      
5       0       0       1       0       2       20      26      
6       0       0       0       9       1       28      
8       0       0       7       0       1       29      
5       0       8       0       0       1       25      
2       0       0       8       0       1       26      
1       8       0       0       0       3       23      27      29      
3       0       0       0       1       1       28      
6       0       0       0       4       1       31      
5       0       1       0       0       1       28      
10      0       0       0       9       1       27      
8       0       4       0       0       1       30      
5       0       0       1       0       1       31      
5       0       0       8       0       1       32      
8       5       0       0       0       1       32      
6       0       0       0       6       1       32      
0       0       0       0       0       0       